; Benchmark for LTL-sketching problem
(set-logic QF_UF)
(set-info :status unknown)
(declare-fun x_0_G () Bool)
(declare-fun x_0_F () Bool)
(declare-fun x_0_X () Bool)
(declare-fun x_0_! () Bool)
(declare-fun z_1_0 () Bool)
(declare-fun z_0_0 () Bool)
(declare-fun z_1_1 () Bool)
(declare-fun z_0_1 () Bool)
(declare-fun z_1_2 () Bool)
(declare-fun z_0_2 () Bool)
(declare-fun z_1_3 () Bool)
(declare-fun z_0_3 () Bool)
(declare-fun z_1_4 () Bool)
(declare-fun z_1_5 () Bool)
(declare-fun z_0_4 () Bool)
(declare-fun z_0_5 () Bool)
(declare-fun z_1_6 () Bool)
(declare-fun z_0_6 () Bool)
(declare-fun z_1_7 () Bool)
(declare-fun z_0_7 () Bool)
(declare-fun z_1_8 () Bool)
(declare-fun z_1_10 () Bool)
(declare-fun z_1_9 () Bool)
(declare-fun z_0_8 () Bool)
(declare-fun z_0_9 () Bool)
(declare-fun z_0_10 () Bool)
(declare-fun z_1_11 () Bool)
(declare-fun z_0_11 () Bool)
(declare-fun z_1_12 () Bool)
(declare-fun z_1_18 () Bool)
(declare-fun z_1_17 () Bool)
(declare-fun z_1_16 () Bool)
(declare-fun z_1_15 () Bool)
(declare-fun z_1_14 () Bool)
(declare-fun z_1_13 () Bool)
(declare-fun z_0_12 () Bool)
(declare-fun z_0_13 () Bool)
(declare-fun z_0_14 () Bool)
(declare-fun z_0_15 () Bool)
(declare-fun z_0_16 () Bool)
(declare-fun z_0_17 () Bool)
(declare-fun z_0_18 () Bool)
(declare-fun z_1_19 () Bool)
(declare-fun z_0_19 () Bool)
(declare-fun z_1_20 () Bool)
(declare-fun z_0_20 () Bool)
(declare-fun z_1_21 () Bool)
(declare-fun z_0_21 () Bool)
(declare-fun z_1_22 () Bool)
(declare-fun z_1_27 () Bool)
(declare-fun z_1_26 () Bool)
(declare-fun z_1_25 () Bool)
(declare-fun z_1_24 () Bool)
(declare-fun z_1_23 () Bool)
(declare-fun z_0_22 () Bool)
(declare-fun z_0_23 () Bool)
(declare-fun z_0_24 () Bool)
(declare-fun z_0_25 () Bool)
(declare-fun z_0_26 () Bool)
(declare-fun z_0_27 () Bool)
(declare-fun z_1_28 () Bool)
(declare-fun z_0_28 () Bool)
(declare-fun z_1_29 () Bool)
(declare-fun z_0_29 () Bool)
(declare-fun z_1_30 () Bool)
(declare-fun z_0_30 () Bool)
(declare-fun z_1_31 () Bool)
(declare-fun z_0_31 () Bool)
(declare-fun z_1_32 () Bool)
(declare-fun z_0_32 () Bool)
(declare-fun z_1_33 () Bool)
(declare-fun z_0_33 () Bool)
(declare-fun z_1_34 () Bool)
(declare-fun z_0_34 () Bool)
(declare-fun z_1_35 () Bool)
(declare-fun z_0_35 () Bool)
(declare-fun z_1_36 () Bool)
(declare-fun z_0_36 () Bool)
(declare-fun z_1_37 () Bool)
(declare-fun z_0_37 () Bool)
(declare-fun z_1_38 () Bool)
(declare-fun z_0_38 () Bool)
(declare-fun z_1_39 () Bool)
(declare-fun z_0_39 () Bool)
(declare-fun z_1_40 () Bool)
(declare-fun z_1_41 () Bool)
(declare-fun z_0_40 () Bool)
(declare-fun z_0_41 () Bool)
(declare-fun z_1_42 () Bool)
(declare-fun z_0_42 () Bool)
(declare-fun z_1_43 () Bool)
(declare-fun z_0_43 () Bool)
(declare-fun z_1_44 () Bool)
(declare-fun z_1_49 () Bool)
(declare-fun z_1_48 () Bool)
(declare-fun z_1_47 () Bool)
(declare-fun z_1_46 () Bool)
(declare-fun z_1_45 () Bool)
(declare-fun z_0_44 () Bool)
(declare-fun z_0_45 () Bool)
(declare-fun z_0_46 () Bool)
(declare-fun z_0_47 () Bool)
(declare-fun z_0_48 () Bool)
(declare-fun z_0_49 () Bool)
(declare-fun z_1_50 () Bool)
(declare-fun z_0_50 () Bool)
(declare-fun z_1_51 () Bool)
(declare-fun z_0_51 () Bool)
(declare-fun z_1_52 () Bool)
(declare-fun z_0_52 () Bool)
(declare-fun z_1_53 () Bool)
(declare-fun z_0_53 () Bool)
(declare-fun z_1_54 () Bool)
(declare-fun z_0_54 () Bool)
(declare-fun z_1_55 () Bool)
(declare-fun z_0_55 () Bool)
(declare-fun z_1_56 () Bool)
(declare-fun z_0_56 () Bool)
(declare-fun z_1_57 () Bool)
(declare-fun z_0_57 () Bool)
(declare-fun z_1_58 () Bool)
(declare-fun z_0_58 () Bool)
(declare-fun z_1_59 () Bool)
(declare-fun z_0_59 () Bool)
(declare-fun z_1_60 () Bool)
(declare-fun z_0_60 () Bool)
(declare-fun z_1_61 () Bool)
(declare-fun z_0_61 () Bool)
(declare-fun z_1_62 () Bool)
(declare-fun z_0_62 () Bool)
(declare-fun z_1_63 () Bool)
(declare-fun z_0_63 () Bool)
(declare-fun z_1_64 () Bool)
(declare-fun z_0_64 () Bool)
(declare-fun z_1_65 () Bool)
(declare-fun z_1_66 () Bool)
(declare-fun z_0_65 () Bool)
(declare-fun z_0_66 () Bool)
(declare-fun z_1_67 () Bool)
(declare-fun z_0_67 () Bool)
(declare-fun z_1_68 () Bool)
(declare-fun z_0_68 () Bool)
(declare-fun z_1_69 () Bool)
(declare-fun z_1_75 () Bool)
(declare-fun z_1_74 () Bool)
(declare-fun z_1_73 () Bool)
(declare-fun z_1_72 () Bool)
(declare-fun z_1_71 () Bool)
(declare-fun z_1_70 () Bool)
(declare-fun z_0_69 () Bool)
(declare-fun z_0_70 () Bool)
(declare-fun z_0_71 () Bool)
(declare-fun z_0_72 () Bool)
(declare-fun z_0_73 () Bool)
(declare-fun z_0_74 () Bool)
(declare-fun z_0_75 () Bool)
(declare-fun z_1_76 () Bool)
(declare-fun z_0_76 () Bool)
(declare-fun z_1_77 () Bool)
(declare-fun z_1_78 () Bool)
(declare-fun z_0_77 () Bool)
(declare-fun z_0_78 () Bool)
(declare-fun z_1_79 () Bool)
(declare-fun z_0_79 () Bool)
(declare-fun z_1_80 () Bool)
(declare-fun z_1_81 () Bool)
(declare-fun z_0_80 () Bool)
(declare-fun z_0_81 () Bool)
(declare-fun z_1_82 () Bool)
(declare-fun z_0_82 () Bool)
(declare-fun z_1_83 () Bool)
(declare-fun z_0_83 () Bool)
(declare-fun z_1_84 () Bool)
(declare-fun z_0_84 () Bool)
(assert
 (or x_0_! x_0_X x_0_F x_0_G))
(assert
 (let (($x15 (not x_0_G)))
 (let (($x13 (not x_0_F)))
 (let (($x19 (or $x13 $x15)))
 (let (($x11 (not x_0_X)))
 (let (($x18 (or $x11 $x15)))
 (let (($x17 (or $x11 $x13)))
 (let (($x10 (not x_0_!)))
 (let (($x16 (or $x10 $x15)))
 (let (($x14 (or $x10 $x13)))
 (let (($x12 (or $x10 $x11)))
 (and $x12 $x14 $x16 $x17 $x18 $x19))))))))))))
(assert
 (=> x_0_! (= z_0_0 (not z_1_0))))
(assert
 (let (($x47 (= z_0_0 z_1_0)))
 (=> x_0_X $x47)))
(assert
 (=> x_0_F (= z_0_0 (or z_1_0))))
(assert
 (=> x_0_G (= z_0_0 (and z_1_0))))
(assert
 (=> x_0_! (= z_0_1 (not z_1_1))))
(assert
 (let (($x67 (= z_0_1 z_1_2)))
 (=> x_0_X $x67)))
(assert
 (=> x_0_F (= z_0_1 (or z_1_1 z_1_2 z_1_0))))
(assert
 (let (($x77 (= z_0_1 (and z_1_1 z_1_2 z_1_0))))
 (=> x_0_G $x77)))
(assert
 (=> x_0_! (= z_0_2 (not z_1_2))))
(assert
 (let (($x87 (= z_0_2 z_1_0)))
 (=> x_0_X $x87)))
(assert
 (=> x_0_F (= z_0_2 (or z_1_2 z_1_0))))
(assert
 (let (($x97 (= z_0_2 (and z_1_2 z_1_0))))
 (=> x_0_G $x97)))
(assert
 (=> x_0_! (= z_0_3 (not z_1_3))))
(assert
 (let (($x109 (= z_0_3 z_1_4)))
 (=> x_0_X $x109)))
(assert
 (let (($x113 (or z_1_3 z_1_4 z_1_5)))
 (let (($x114 (= z_0_3 $x113)))
 (=> x_0_F $x114))))
(assert
 (let (($x118 (= z_0_3 (and z_1_3 z_1_4 z_1_5))))
 (=> x_0_G $x118)))
(assert
 (=> x_0_! (= z_0_4 (not z_1_4))))
(assert
 (let (($x128 (= z_0_4 z_1_5)))
 (=> x_0_X $x128)))
(assert
 (=> x_0_F (= z_0_4 (or z_1_4 z_1_5 z_1_3))))
(assert
 (let (($x137 (= z_0_4 (and z_1_4 z_1_5 z_1_3))))
 (=> x_0_G $x137)))
(assert
 (=> x_0_! (= z_0_5 (not z_1_5))))
(assert
 (let (($x147 (= z_0_5 z_1_3)))
 (=> x_0_X $x147)))
(assert
 (=> x_0_F (= z_0_5 (or z_1_5 z_1_3 z_1_4))))
(assert
 (let (($x156 (= z_0_5 (and z_1_5 z_1_3 z_1_4))))
 (=> x_0_G $x156)))
(assert
 (=> x_0_! (= z_0_6 (not z_1_6))))
(assert
 (let (($x167 (= z_0_6 z_1_5)))
 (=> x_0_X $x167)))
(assert
 (=> x_0_F (= z_0_6 (or z_1_6 z_1_5 z_1_3 z_1_4))))
(assert
 (let (($x177 (= z_0_6 (and z_1_6 z_1_5 z_1_3 z_1_4))))
 (=> x_0_G $x177)))
(assert
 (=> x_0_! (= z_0_7 (not z_1_7))))
(assert
 (let (($x189 (= z_0_7 z_1_8)))
 (=> x_0_X $x189)))
(assert
 (let (($x195 (= z_0_7 (or z_1_7 z_1_8 z_1_9 z_1_10))))
 (=> x_0_F $x195)))
(assert
 (let (($x199 (= z_0_7 (and z_1_7 z_1_8 z_1_9 z_1_10))))
 (=> x_0_G $x199)))
(assert
 (=> x_0_! (= z_0_8 (not z_1_8))))
(assert
 (let (($x209 (= z_0_8 z_1_9)))
 (=> x_0_X $x209)))
(assert
 (let (($x213 (= z_0_8 (or z_1_8 z_1_9 z_1_10))))
 (=> x_0_F $x213)))
(assert
 (let (($x217 (= z_0_8 (and z_1_8 z_1_9 z_1_10))))
 (=> x_0_G $x217)))
(assert
 (=> x_0_! (= z_0_9 (not z_1_9))))
(assert
 (let (($x227 (= z_0_9 z_1_10)))
 (=> x_0_X $x227)))
(assert
 (let (($x231 (= z_0_9 (or z_1_9 z_1_10))))
 (=> x_0_F $x231)))
(assert
 (let (($x235 (= z_0_9 (and z_1_9 z_1_10))))
 (=> x_0_G $x235)))
(assert
 (=> x_0_! (= z_0_10 (not z_1_10))))
(assert
 (let (($x245 (= z_0_10 z_1_9)))
 (=> x_0_X $x245)))
(assert
 (let (($x249 (= z_0_10 (or z_1_10 z_1_9))))
 (=> x_0_F $x249)))
(assert
 (let (($x253 (= z_0_10 (and z_1_10 z_1_9))))
 (=> x_0_G $x253)))
(assert
 (=> x_0_! (= z_0_11 (not z_1_11))))
(assert
 (let (($x265 (= z_0_11 z_1_12)))
 (=> x_0_X $x265)))
(assert
 (let (($x274 (or z_1_11 z_1_12 z_1_13 z_1_14 z_1_15 z_1_16 z_1_17 z_1_18)))
 (let (($x275 (= z_0_11 $x274)))
 (=> x_0_F $x275))))
(assert
 (let (($x278 (and z_1_11 z_1_12 z_1_13 z_1_14 z_1_15 z_1_16 z_1_17 z_1_18)))
 (let (($x279 (= z_0_11 $x278)))
 (=> x_0_G $x279))))
(assert
 (=> x_0_! (= z_0_12 (not z_1_12))))
(assert
 (let (($x289 (= z_0_12 z_1_13)))
 (=> x_0_X $x289)))
(assert
 (let (($x293 (= z_0_12 (or z_1_12 z_1_13 z_1_14 z_1_15 z_1_16 z_1_17 z_1_18))))
 (=> x_0_F $x293)))
(assert
 (let (($x297 (= z_0_12 (and z_1_12 z_1_13 z_1_14 z_1_15 z_1_16 z_1_17 z_1_18))))
 (=> x_0_G $x297)))
(assert
 (=> x_0_! (= z_0_13 (not z_1_13))))
(assert
 (let (($x307 (= z_0_13 z_1_14)))
 (=> x_0_X $x307)))
(assert
 (let (($x311 (= z_0_13 (or z_1_13 z_1_14 z_1_15 z_1_16 z_1_17 z_1_18))))
 (=> x_0_F $x311)))
(assert
 (let (($x315 (= z_0_13 (and z_1_13 z_1_14 z_1_15 z_1_16 z_1_17 z_1_18))))
 (=> x_0_G $x315)))
(assert
 (=> x_0_! (= z_0_14 (not z_1_14))))
(assert
 (let (($x325 (= z_0_14 z_1_15)))
 (=> x_0_X $x325)))
(assert
 (let (($x329 (= z_0_14 (or z_1_14 z_1_15 z_1_16 z_1_17 z_1_18))))
 (=> x_0_F $x329)))
(assert
 (let (($x333 (= z_0_14 (and z_1_14 z_1_15 z_1_16 z_1_17 z_1_18))))
 (=> x_0_G $x333)))
(assert
 (=> x_0_! (= z_0_15 (not z_1_15))))
(assert
 (let (($x343 (= z_0_15 z_1_16)))
 (=> x_0_X $x343)))
(assert
 (let (($x346 (or z_1_15 z_1_16 z_1_17 z_1_18)))
 (let (($x347 (= z_0_15 $x346)))
 (=> x_0_F $x347))))
(assert
 (let (($x351 (= z_0_15 (and z_1_15 z_1_16 z_1_17 z_1_18))))
 (=> x_0_G $x351)))
(assert
 (=> x_0_! (= z_0_16 (not z_1_16))))
(assert
 (let (($x361 (= z_0_16 z_1_17)))
 (=> x_0_X $x361)))
(assert
 (=> x_0_F (= z_0_16 (or z_1_16 z_1_17 z_1_18 z_1_15))))
(assert
 (let (($x370 (= z_0_16 (and z_1_16 z_1_17 z_1_18 z_1_15))))
 (=> x_0_G $x370)))
(assert
 (=> x_0_! (= z_0_17 (not z_1_17))))
(assert
 (let (($x380 (= z_0_17 z_1_18)))
 (=> x_0_X $x380)))
(assert
 (=> x_0_F (= z_0_17 (or z_1_17 z_1_18 z_1_15 z_1_16))))
(assert
 (let (($x389 (= z_0_17 (and z_1_17 z_1_18 z_1_15 z_1_16))))
 (=> x_0_G $x389)))
(assert
 (=> x_0_! (= z_0_18 (not z_1_18))))
(assert
 (let (($x399 (= z_0_18 z_1_15)))
 (=> x_0_X $x399)))
(assert
 (=> x_0_F (= z_0_18 (or z_1_18 z_1_15 z_1_16 z_1_17))))
(assert
 (let (($x408 (= z_0_18 (and z_1_18 z_1_15 z_1_16 z_1_17))))
 (=> x_0_G $x408)))
(assert
 (=> x_0_! (= z_0_19 (not z_1_19))))
(assert
 (let (($x420 (= z_0_19 z_1_20)))
 (=> x_0_X $x420)))
(assert
 (=> x_0_F (= z_0_19 (or z_1_19 z_1_20 z_1_16 z_1_17 z_1_18 z_1_15))))
(assert
 (let (($x430 (= z_0_19 (and z_1_19 z_1_20 z_1_16 z_1_17 z_1_18 z_1_15))))
 (=> x_0_G $x430)))
(assert
 (=> x_0_! (= z_0_20 (not z_1_20))))
(assert
 (let (($x440 (= z_0_20 z_1_16)))
 (=> x_0_X $x440)))
(assert
 (=> x_0_F (= z_0_20 (or z_1_20 z_1_16 z_1_17 z_1_18 z_1_15))))
(assert
 (let (($x450 (= z_0_20 (and z_1_20 z_1_16 z_1_17 z_1_18 z_1_15))))
 (=> x_0_G $x450)))
(assert
 (=> x_0_! (= z_0_21 (not z_1_21))))
(assert
 (let (($x462 (= z_0_21 z_1_22)))
 (=> x_0_X $x462)))
(assert
 (let (($x471 (= z_0_21 (or z_1_21 z_1_22 z_1_23 z_1_24 z_1_25 z_1_26 z_1_27))))
 (=> x_0_F $x471)))
(assert
 (let (($x475 (= z_0_21 (and z_1_21 z_1_22 z_1_23 z_1_24 z_1_25 z_1_26 z_1_27))))
 (=> x_0_G $x475)))
(assert
 (=> x_0_! (= z_0_22 (not z_1_22))))
(assert
 (let (($x485 (= z_0_22 z_1_23)))
 (=> x_0_X $x485)))
(assert
 (let (($x489 (= z_0_22 (or z_1_22 z_1_23 z_1_24 z_1_25 z_1_26 z_1_27))))
 (=> x_0_F $x489)))
(assert
 (let (($x493 (= z_0_22 (and z_1_22 z_1_23 z_1_24 z_1_25 z_1_26 z_1_27))))
 (=> x_0_G $x493)))
(assert
 (=> x_0_! (= z_0_23 (not z_1_23))))
(assert
 (let (($x503 (= z_0_23 z_1_24)))
 (=> x_0_X $x503)))
(assert
 (let (($x507 (= z_0_23 (or z_1_23 z_1_24 z_1_25 z_1_26 z_1_27))))
 (=> x_0_F $x507)))
(assert
 (let (($x511 (= z_0_23 (and z_1_23 z_1_24 z_1_25 z_1_26 z_1_27))))
 (=> x_0_G $x511)))
(assert
 (=> x_0_! (= z_0_24 (not z_1_24))))
(assert
 (let (($x521 (= z_0_24 z_1_25)))
 (=> x_0_X $x521)))
(assert
 (let (($x524 (or z_1_24 z_1_25 z_1_26 z_1_27)))
 (let (($x525 (= z_0_24 $x524)))
 (=> x_0_F $x525))))
(assert
 (let (($x529 (= z_0_24 (and z_1_24 z_1_25 z_1_26 z_1_27))))
 (=> x_0_G $x529)))
(assert
 (=> x_0_! (= z_0_25 (not z_1_25))))
(assert
 (let (($x539 (= z_0_25 z_1_26)))
 (=> x_0_X $x539)))
(assert
 (=> x_0_F (= z_0_25 (or z_1_25 z_1_26 z_1_27 z_1_24))))
(assert
 (let (($x548 (= z_0_25 (and z_1_25 z_1_26 z_1_27 z_1_24))))
 (=> x_0_G $x548)))
(assert
 (=> x_0_! (= z_0_26 (not z_1_26))))
(assert
 (let (($x558 (= z_0_26 z_1_27)))
 (=> x_0_X $x558)))
(assert
 (=> x_0_F (= z_0_26 (or z_1_26 z_1_27 z_1_24 z_1_25))))
(assert
 (let (($x567 (= z_0_26 (and z_1_26 z_1_27 z_1_24 z_1_25))))
 (=> x_0_G $x567)))
(assert
 (=> x_0_! (= z_0_27 (not z_1_27))))
(assert
 (let (($x577 (= z_0_27 z_1_24)))
 (=> x_0_X $x577)))
(assert
 (=> x_0_F (= z_0_27 (or z_1_27 z_1_24 z_1_25 z_1_26))))
(assert
 (let (($x586 (= z_0_27 (and z_1_27 z_1_24 z_1_25 z_1_26))))
 (=> x_0_G $x586)))
(assert
 (=> x_0_! (= z_0_28 (not z_1_28))))
(assert
 (let (($x598 (= z_0_28 z_1_29)))
 (=> x_0_X $x598)))
(assert
 (let (($x602 (= z_0_28 (or z_1_28 z_1_29))))
 (=> x_0_F $x602)))
(assert
 (let (($x606 (= z_0_28 (and z_1_28 z_1_29))))
 (=> x_0_G $x606)))
(assert
 (=> x_0_! (= z_0_29 (not z_1_29))))
(assert
 (let (($x616 (= z_0_29 z_1_29)))
 (=> x_0_X $x616)))
(assert
 (=> x_0_F (= z_0_29 (or z_1_29))))
(assert
 (=> x_0_G (= z_0_29 (and z_1_29))))
(assert
 (=> x_0_! (= z_0_30 (not z_1_30))))
(assert
 (let (($x635 (= z_0_30 z_1_19)))
 (=> x_0_X $x635)))
(assert
 (let (($x639 (= z_0_30 (or z_1_30 z_1_19 z_1_20 z_1_16 z_1_17 z_1_18 z_1_15))))
 (=> x_0_F $x639)))
(assert
 (let (($x645 (= z_0_30 (and z_1_30 z_1_19 z_1_20 z_1_16 z_1_17 z_1_18 z_1_15))))
 (=> x_0_G $x645)))
(assert
 (=> x_0_! (= z_0_31 (not z_1_31))))
(assert
 (let (($x657 (= z_0_31 z_1_32)))
 (=> x_0_X $x657)))
(assert
 (=> x_0_F (= z_0_31 (or z_1_31 z_1_32 z_1_28 z_1_29))))
(assert
 (let (($x667 (= z_0_31 (and z_1_31 z_1_32 z_1_28 z_1_29))))
 (=> x_0_G $x667)))
(assert
 (=> x_0_! (= z_0_32 (not z_1_32))))
(assert
 (let (($x677 (= z_0_32 z_1_28)))
 (=> x_0_X $x677)))
(assert
 (=> x_0_F (= z_0_32 (or z_1_32 z_1_28 z_1_29))))
(assert
 (let (($x687 (= z_0_32 (and z_1_32 z_1_28 z_1_29))))
 (=> x_0_G $x687)))
(assert
 (=> x_0_! (= z_0_33 (not z_1_33))))
(assert
 (let (($x699 (= z_0_33 z_1_34)))
 (=> x_0_X $x699)))
(assert
 (=> x_0_F (= z_0_33 (or z_1_33 z_1_34 z_1_25 z_1_26 z_1_27 z_1_24))))
(assert
 (let (($x709 (= z_0_33 (and z_1_33 z_1_34 z_1_25 z_1_26 z_1_27 z_1_24))))
 (=> x_0_G $x709)))
(assert
 (=> x_0_! (= z_0_34 (not z_1_34))))
(assert
 (let (($x719 (= z_0_34 z_1_25)))
 (=> x_0_X $x719)))
(assert
 (=> x_0_F (= z_0_34 (or z_1_34 z_1_25 z_1_26 z_1_27 z_1_24))))
(assert
 (let (($x729 (= z_0_34 (and z_1_34 z_1_25 z_1_26 z_1_27 z_1_24))))
 (=> x_0_G $x729)))
(assert
 (=> x_0_! (= z_0_35 (not z_1_35))))
(assert
 (let (($x740 (= z_0_35 z_1_7)))
 (=> x_0_X $x740)))
(assert
 (=> x_0_F (= z_0_35 (or z_1_35 z_1_7 z_1_8 z_1_9 z_1_10))))
(assert
 (let (($x750 (= z_0_35 (and z_1_35 z_1_7 z_1_8 z_1_9 z_1_10))))
 (=> x_0_G $x750)))
(assert
 (=> x_0_! (= z_0_36 (not z_1_36))))
(assert
 (let (($x761 (= z_0_36 z_1_17)))
 (=> x_0_X $x761)))
(assert
 (=> x_0_F (= z_0_36 (or z_1_36 z_1_17 z_1_18 z_1_15 z_1_16))))
(assert
 (let (($x771 (= z_0_36 (and z_1_36 z_1_17 z_1_18 z_1_15 z_1_16))))
 (=> x_0_G $x771)))
(assert
 (=> x_0_! (= z_0_37 (not z_1_37))))
(assert
 (let (($x783 (= z_0_37 z_1_38)))
 (=> x_0_X $x783)))
(assert
 (let (($x787 (= z_0_37 (or z_1_37 z_1_38 z_1_20 z_1_16 z_1_17 z_1_18 z_1_15))))
 (=> x_0_F $x787)))
(assert
 (let (($x793 (= z_0_37 (and z_1_37 z_1_38 z_1_20 z_1_16 z_1_17 z_1_18 z_1_15))))
 (=> x_0_G $x793)))
(assert
 (=> x_0_! (= z_0_38 (not z_1_38))))
(assert
 (let (($x803 (= z_0_38 z_1_20)))
 (=> x_0_X $x803)))
(assert
 (=> x_0_F (= z_0_38 (or z_1_38 z_1_20 z_1_16 z_1_17 z_1_18 z_1_15))))
(assert
 (let (($x813 (= z_0_38 (and z_1_38 z_1_20 z_1_16 z_1_17 z_1_18 z_1_15))))
 (=> x_0_G $x813)))
(assert
 (=> x_0_! (= z_0_39 (not z_1_39))))
(assert
 (let (($x825 (= z_0_39 z_1_40)))
 (=> x_0_X $x825)))
(assert
 (let (($x830 (= z_0_39 (or z_1_39 z_1_40 z_1_41 z_1_6 z_1_5 z_1_3 z_1_4))))
 (=> x_0_F $x830)))
(assert
 (let (($x836 (= z_0_39 (and z_1_39 z_1_40 z_1_41 z_1_6 z_1_5 z_1_3 z_1_4))))
 (=> x_0_G $x836)))
(assert
 (=> x_0_! (= z_0_40 (not z_1_40))))
(assert
 (let (($x846 (= z_0_40 z_1_41)))
 (=> x_0_X $x846)))
(assert
 (=> x_0_F (= z_0_40 (or z_1_40 z_1_41 z_1_6 z_1_5 z_1_3 z_1_4))))
(assert
 (let (($x856 (= z_0_40 (and z_1_40 z_1_41 z_1_6 z_1_5 z_1_3 z_1_4))))
 (=> x_0_G $x856)))
(assert
 (=> x_0_! (= z_0_41 (not z_1_41))))
(assert
 (let (($x866 (= z_0_41 z_1_6)))
 (=> x_0_X $x866)))
(assert
 (=> x_0_F (= z_0_41 (or z_1_41 z_1_6 z_1_5 z_1_3 z_1_4))))
(assert
 (let (($x876 (= z_0_41 (and z_1_41 z_1_6 z_1_5 z_1_3 z_1_4))))
 (=> x_0_G $x876)))
(assert
 (=> x_0_! (= z_0_42 (not z_1_42))))
(assert
 (let (($x887 (= z_0_42 z_1_8)))
 (=> x_0_X $x887)))
(assert
 (=> x_0_F (= z_0_42 (or z_1_42 z_1_8 z_1_9 z_1_10))))
(assert
 (let (($x897 (= z_0_42 (and z_1_42 z_1_8 z_1_9 z_1_10))))
 (=> x_0_G $x897)))
(assert
 (=> x_0_! (= z_0_43 (not z_1_43))))
(assert
 (let (($x909 (= z_0_43 z_1_44)))
 (=> x_0_X $x909)))
(assert
 (let (($x918 (= z_0_43 (or z_1_43 z_1_44 z_1_45 z_1_46 z_1_47 z_1_48 z_1_49))))
 (=> x_0_F $x918)))
(assert
 (let (($x922 (= z_0_43 (and z_1_43 z_1_44 z_1_45 z_1_46 z_1_47 z_1_48 z_1_49))))
 (=> x_0_G $x922)))
(assert
 (=> x_0_! (= z_0_44 (not z_1_44))))
(assert
 (let (($x932 (= z_0_44 z_1_45)))
 (=> x_0_X $x932)))
(assert
 (let (($x936 (= z_0_44 (or z_1_44 z_1_45 z_1_46 z_1_47 z_1_48 z_1_49))))
 (=> x_0_F $x936)))
(assert
 (let (($x940 (= z_0_44 (and z_1_44 z_1_45 z_1_46 z_1_47 z_1_48 z_1_49))))
 (=> x_0_G $x940)))
(assert
 (=> x_0_! (= z_0_45 (not z_1_45))))
(assert
 (let (($x950 (= z_0_45 z_1_46)))
 (=> x_0_X $x950)))
(assert
 (let (($x954 (= z_0_45 (or z_1_45 z_1_46 z_1_47 z_1_48 z_1_49))))
 (=> x_0_F $x954)))
(assert
 (let (($x958 (= z_0_45 (and z_1_45 z_1_46 z_1_47 z_1_48 z_1_49))))
 (=> x_0_G $x958)))
(assert
 (=> x_0_! (= z_0_46 (not z_1_46))))
(assert
 (let (($x968 (= z_0_46 z_1_47)))
 (=> x_0_X $x968)))
(assert
 (let (($x972 (= z_0_46 (or z_1_46 z_1_47 z_1_48 z_1_49))))
 (=> x_0_F $x972)))
(assert
 (let (($x976 (= z_0_46 (and z_1_46 z_1_47 z_1_48 z_1_49))))
 (=> x_0_G $x976)))
(assert
 (=> x_0_! (= z_0_47 (not z_1_47))))
(assert
 (let (($x986 (= z_0_47 z_1_48)))
 (=> x_0_X $x986)))
(assert
 (let (($x989 (or z_1_47 z_1_48 z_1_49)))
 (let (($x990 (= z_0_47 $x989)))
 (=> x_0_F $x990))))
(assert
 (let (($x994 (= z_0_47 (and z_1_47 z_1_48 z_1_49))))
 (=> x_0_G $x994)))
(assert
 (=> x_0_! (= z_0_48 (not z_1_48))))
(assert
 (let (($x1004 (= z_0_48 z_1_49)))
 (=> x_0_X $x1004)))
(assert
 (=> x_0_F (= z_0_48 (or z_1_48 z_1_49 z_1_47))))
(assert
 (let (($x1013 (= z_0_48 (and z_1_48 z_1_49 z_1_47))))
 (=> x_0_G $x1013)))
(assert
 (=> x_0_! (= z_0_49 (not z_1_49))))
(assert
 (let (($x1023 (= z_0_49 z_1_47)))
 (=> x_0_X $x1023)))
(assert
 (=> x_0_F (= z_0_49 (or z_1_49 z_1_47 z_1_48))))
(assert
 (let (($x1032 (= z_0_49 (and z_1_49 z_1_47 z_1_48))))
 (=> x_0_G $x1032)))
(assert
 (=> x_0_! (= z_0_50 (not z_1_50))))
(assert
 (let (($x1044 (= z_0_50 z_1_51)))
 (=> x_0_X $x1044)))
(assert
 (=> x_0_F (= z_0_50 (or z_1_50 z_1_51 z_1_48 z_1_49 z_1_47))))
(assert
 (let (($x1054 (= z_0_50 (and z_1_50 z_1_51 z_1_48 z_1_49 z_1_47))))
 (=> x_0_G $x1054)))
(assert
 (=> x_0_! (= z_0_51 (not z_1_51))))
(assert
 (let (($x1064 (= z_0_51 z_1_48)))
 (=> x_0_X $x1064)))
(assert
 (=> x_0_F (= z_0_51 (or z_1_51 z_1_48 z_1_49 z_1_47))))
(assert
 (let (($x1074 (= z_0_51 (and z_1_51 z_1_48 z_1_49 z_1_47))))
 (=> x_0_G $x1074)))
(assert
 (=> x_0_! (= z_0_52 (not z_1_52))))
(assert
 (let (($x1086 (= z_0_52 z_1_53)))
 (=> x_0_X $x1086)))
(assert
 (=> x_0_F (= z_0_52 (or z_1_52 z_1_53 z_1_42 z_1_8 z_1_9 z_1_10))))
(assert
 (let (($x1096 (= z_0_52 (and z_1_52 z_1_53 z_1_42 z_1_8 z_1_9 z_1_10))))
 (=> x_0_G $x1096)))
(assert
 (=> x_0_! (= z_0_53 (not z_1_53))))
(assert
 (let (($x1106 (= z_0_53 z_1_42)))
 (=> x_0_X $x1106)))
(assert
 (=> x_0_F (= z_0_53 (or z_1_53 z_1_42 z_1_8 z_1_9 z_1_10))))
(assert
 (let (($x1116 (= z_0_53 (and z_1_53 z_1_42 z_1_8 z_1_9 z_1_10))))
 (=> x_0_G $x1116)))
(assert
 (=> x_0_! (= z_0_54 (not z_1_54))))
(assert
 (let (($x1128 (= z_0_54 z_1_55)))
 (=> x_0_X $x1128)))
(assert
 (=> x_0_F (= z_0_54 (or z_1_54 z_1_55 z_1_42 z_1_8 z_1_9 z_1_10))))
(assert
 (let (($x1138 (= z_0_54 (and z_1_54 z_1_55 z_1_42 z_1_8 z_1_9 z_1_10))))
 (=> x_0_G $x1138)))
(assert
 (=> x_0_! (= z_0_55 (not z_1_55))))
(assert
 (let (($x1148 (= z_0_55 z_1_42)))
 (=> x_0_X $x1148)))
(assert
 (=> x_0_F (= z_0_55 (or z_1_55 z_1_42 z_1_8 z_1_9 z_1_10))))
(assert
 (let (($x1158 (= z_0_55 (and z_1_55 z_1_42 z_1_8 z_1_9 z_1_10))))
 (=> x_0_G $x1158)))
(assert
 (=> x_0_! (= z_0_56 (not z_1_56))))
(assert
 (let (($x1170 (= z_0_56 z_1_57)))
 (=> x_0_X $x1170)))
(assert
 (=> x_0_F (= z_0_56 (or z_1_56 z_1_57 z_1_4 z_1_5 z_1_3))))
(assert
 (let (($x1180 (= z_0_56 (and z_1_56 z_1_57 z_1_4 z_1_5 z_1_3))))
 (=> x_0_G $x1180)))
(assert
 (=> x_0_! (= z_0_57 (not z_1_57))))
(assert
 (let (($x1190 (= z_0_57 z_1_4)))
 (=> x_0_X $x1190)))
(assert
 (=> x_0_F (= z_0_57 (or z_1_57 z_1_4 z_1_5 z_1_3))))
(assert
 (let (($x1200 (= z_0_57 (and z_1_57 z_1_4 z_1_5 z_1_3))))
 (=> x_0_G $x1200)))
(assert
 (=> x_0_! (= z_0_58 (not z_1_58))))
(assert
 (let (($x1211 (= z_0_58 z_1_55)))
 (=> x_0_X $x1211)))
(assert
 (=> x_0_F (= z_0_58 (or z_1_58 z_1_55 z_1_42 z_1_8 z_1_9 z_1_10))))
(assert
 (let (($x1221 (= z_0_58 (and z_1_58 z_1_55 z_1_42 z_1_8 z_1_9 z_1_10))))
 (=> x_0_G $x1221)))
(assert
 (=> x_0_! (= z_0_59 (not z_1_59))))
(assert
 (let (($x1232 (= z_0_59 z_1_1)))
 (=> x_0_X $x1232)))
(assert
 (=> x_0_F (= z_0_59 (or z_1_59 z_1_1 z_1_2 z_1_0))))
(assert
 (let (($x1242 (= z_0_59 (and z_1_59 z_1_1 z_1_2 z_1_0))))
 (=> x_0_G $x1242)))
(assert
 (=> x_0_! (= z_0_60 (not z_1_60))))
(assert
 (let (($x1253 (= z_0_60 z_1_1)))
 (=> x_0_X $x1253)))
(assert
 (=> x_0_F (= z_0_60 (or z_1_60 z_1_1 z_1_2 z_1_0))))
(assert
 (let (($x1263 (= z_0_60 (and z_1_60 z_1_1 z_1_2 z_1_0))))
 (=> x_0_G $x1263)))
(assert
 (=> x_0_! (= z_0_61 (not z_1_61))))
(assert
 (let (($x1274 (= z_0_61 z_1_60)))
 (=> x_0_X $x1274)))
(assert
 (=> x_0_F (= z_0_61 (or z_1_61 z_1_60 z_1_1 z_1_2 z_1_0))))
(assert
 (let (($x1284 (= z_0_61 (and z_1_61 z_1_60 z_1_1 z_1_2 z_1_0))))
 (=> x_0_G $x1284)))
(assert
 (=> x_0_! (= z_0_62 (not z_1_62))))
(assert
 (let (($x1296 (= z_0_62 z_1_63)))
 (=> x_0_X $x1296)))
(assert
 (=> x_0_F (= z_0_62 (or z_1_62 z_1_63 z_1_27 z_1_24 z_1_25 z_1_26))))
(assert
 (let (($x1306 (= z_0_62 (and z_1_62 z_1_63 z_1_27 z_1_24 z_1_25 z_1_26))))
 (=> x_0_G $x1306)))
(assert
 (=> x_0_! (= z_0_63 (not z_1_63))))
(assert
 (let (($x1316 (= z_0_63 z_1_27)))
 (=> x_0_X $x1316)))
(assert
 (=> x_0_F (= z_0_63 (or z_1_63 z_1_27 z_1_24 z_1_25 z_1_26))))
(assert
 (let (($x1326 (= z_0_63 (and z_1_63 z_1_27 z_1_24 z_1_25 z_1_26))))
 (=> x_0_G $x1326)))
(assert
 (=> x_0_! (= z_0_64 (not z_1_64))))
(assert
 (let (($x1338 (= z_0_64 z_1_65)))
 (=> x_0_X $x1338)))
(assert
 (=> x_0_F (= z_0_64 (or z_1_64 z_1_65 z_1_66 z_1_2 z_1_0))))
(assert
 (let (($x1349 (= z_0_64 (and z_1_64 z_1_65 z_1_66 z_1_2 z_1_0))))
 (=> x_0_G $x1349)))
(assert
 (=> x_0_! (= z_0_65 (not z_1_65))))
(assert
 (let (($x1359 (= z_0_65 z_1_66)))
 (=> x_0_X $x1359)))
(assert
 (=> x_0_F (= z_0_65 (or z_1_65 z_1_66 z_1_2 z_1_0))))
(assert
 (let (($x1369 (= z_0_65 (and z_1_65 z_1_66 z_1_2 z_1_0))))
 (=> x_0_G $x1369)))
(assert
 (=> x_0_! (= z_0_66 (not z_1_66))))
(assert
 (let (($x1379 (= z_0_66 z_1_2)))
 (=> x_0_X $x1379)))
(assert
 (=> x_0_F (= z_0_66 (or z_1_66 z_1_2 z_1_0))))
(assert
 (let (($x1389 (= z_0_66 (and z_1_66 z_1_2 z_1_0))))
 (=> x_0_G $x1389)))
(assert
 (=> x_0_! (= z_0_67 (not z_1_67))))
(assert
 (let (($x1400 (= z_0_67 z_1_14)))
 (=> x_0_X $x1400)))
(assert
 (=> x_0_F (= z_0_67 (or z_1_67 z_1_14 z_1_15 z_1_16 z_1_17 z_1_18))))
(assert
 (let (($x1410 (= z_0_67 (and z_1_67 z_1_14 z_1_15 z_1_16 z_1_17 z_1_18))))
 (=> x_0_G $x1410)))
(assert
 (=> x_0_! (= z_0_68 (not z_1_68))))
(assert
 (let (($x1422 (= z_0_68 z_1_69)))
 (=> x_0_X $x1422)))
(assert
 (let (($x1431 (or z_1_68 z_1_69 z_1_70 z_1_71 z_1_72 z_1_73 z_1_74 z_1_75 z_1_19 z_1_20 z_1_16 z_1_17 z_1_18 z_1_15)))
 (=> x_0_F (= z_0_68 $x1431))))
(assert
 (let (($x1437 (and z_1_68 z_1_69 z_1_70 z_1_71 z_1_72 z_1_73 z_1_74 z_1_75 z_1_19 z_1_20 z_1_16 z_1_17 z_1_18 z_1_15)))
 (let (($x1438 (= z_0_68 $x1437)))
 (=> x_0_G $x1438))))
(assert
 (=> x_0_! (= z_0_69 (not z_1_69))))
(assert
 (let (($x1448 (= z_0_69 z_1_70)))
 (=> x_0_X $x1448)))
(assert
 (let (($x1451 (or z_1_69 z_1_70 z_1_71 z_1_72 z_1_73 z_1_74 z_1_75 z_1_19 z_1_20 z_1_16 z_1_17 z_1_18 z_1_15)))
 (=> x_0_F (= z_0_69 $x1451))))
(assert
 (let (($x1457 (and z_1_69 z_1_70 z_1_71 z_1_72 z_1_73 z_1_74 z_1_75 z_1_19 z_1_20 z_1_16 z_1_17 z_1_18 z_1_15)))
 (let (($x1458 (= z_0_69 $x1457)))
 (=> x_0_G $x1458))))
(assert
 (=> x_0_! (= z_0_70 (not z_1_70))))
(assert
 (let (($x1468 (= z_0_70 z_1_71)))
 (=> x_0_X $x1468)))
(assert
 (let (($x1471 (or z_1_70 z_1_71 z_1_72 z_1_73 z_1_74 z_1_75 z_1_19 z_1_20 z_1_16 z_1_17 z_1_18 z_1_15)))
 (=> x_0_F (= z_0_70 $x1471))))
(assert
 (let (($x1477 (and z_1_70 z_1_71 z_1_72 z_1_73 z_1_74 z_1_75 z_1_19 z_1_20 z_1_16 z_1_17 z_1_18 z_1_15)))
 (let (($x1478 (= z_0_70 $x1477)))
 (=> x_0_G $x1478))))
(assert
 (=> x_0_! (= z_0_71 (not z_1_71))))
(assert
 (let (($x1488 (= z_0_71 z_1_72)))
 (=> x_0_X $x1488)))
(assert
 (let (($x1491 (or z_1_71 z_1_72 z_1_73 z_1_74 z_1_75 z_1_19 z_1_20 z_1_16 z_1_17 z_1_18 z_1_15)))
 (=> x_0_F (= z_0_71 $x1491))))
(assert
 (let (($x1497 (and z_1_71 z_1_72 z_1_73 z_1_74 z_1_75 z_1_19 z_1_20 z_1_16 z_1_17 z_1_18 z_1_15)))
 (let (($x1498 (= z_0_71 $x1497)))
 (=> x_0_G $x1498))))
(assert
 (=> x_0_! (= z_0_72 (not z_1_72))))
(assert
 (let (($x1508 (= z_0_72 z_1_73)))
 (=> x_0_X $x1508)))
(assert
 (let (($x1511 (or z_1_72 z_1_73 z_1_74 z_1_75 z_1_19 z_1_20 z_1_16 z_1_17 z_1_18 z_1_15)))
 (=> x_0_F (= z_0_72 $x1511))))
(assert
 (let (($x1517 (and z_1_72 z_1_73 z_1_74 z_1_75 z_1_19 z_1_20 z_1_16 z_1_17 z_1_18 z_1_15)))
 (let (($x1518 (= z_0_72 $x1517)))
 (=> x_0_G $x1518))))
(assert
 (=> x_0_! (= z_0_73 (not z_1_73))))
(assert
 (let (($x1528 (= z_0_73 z_1_74)))
 (=> x_0_X $x1528)))
(assert
 (let (($x1531 (or z_1_73 z_1_74 z_1_75 z_1_19 z_1_20 z_1_16 z_1_17 z_1_18 z_1_15)))
 (=> x_0_F (= z_0_73 $x1531))))
(assert
 (let (($x1537 (and z_1_73 z_1_74 z_1_75 z_1_19 z_1_20 z_1_16 z_1_17 z_1_18 z_1_15)))
 (let (($x1538 (= z_0_73 $x1537)))
 (=> x_0_G $x1538))))
(assert
 (=> x_0_! (= z_0_74 (not z_1_74))))
(assert
 (let (($x1548 (= z_0_74 z_1_75)))
 (=> x_0_X $x1548)))
(assert
 (let (($x1551 (or z_1_74 z_1_75 z_1_19 z_1_20 z_1_16 z_1_17 z_1_18 z_1_15)))
 (=> x_0_F (= z_0_74 $x1551))))
(assert
 (let (($x1557 (and z_1_74 z_1_75 z_1_19 z_1_20 z_1_16 z_1_17 z_1_18 z_1_15)))
 (let (($x1558 (= z_0_74 $x1557)))
 (=> x_0_G $x1558))))
(assert
 (=> x_0_! (= z_0_75 (not z_1_75))))
(assert
 (let (($x1568 (= z_0_75 z_1_19)))
 (=> x_0_X $x1568)))
(assert
 (let (($x1572 (= z_0_75 (or z_1_75 z_1_19 z_1_20 z_1_16 z_1_17 z_1_18 z_1_15))))
 (=> x_0_F $x1572)))
(assert
 (let (($x1578 (= z_0_75 (and z_1_75 z_1_19 z_1_20 z_1_16 z_1_17 z_1_18 z_1_15))))
 (=> x_0_G $x1578)))
(assert
 (=> x_0_! (= z_0_76 (not z_1_76))))
(assert
 (let (($x1590 (= z_0_76 z_1_77)))
 (=> x_0_X $x1590)))
(assert
 (let (($x1594 (or z_1_76 z_1_77 z_1_78 z_1_23 z_1_24 z_1_25 z_1_26 z_1_27)))
 (=> x_0_F (= z_0_76 $x1594))))
(assert
 (let (($x1600 (and z_1_76 z_1_77 z_1_78 z_1_23 z_1_24 z_1_25 z_1_26 z_1_27)))
 (let (($x1601 (= z_0_76 $x1600)))
 (=> x_0_G $x1601))))
(assert
 (=> x_0_! (= z_0_77 (not z_1_77))))
(assert
 (let (($x1611 (= z_0_77 z_1_78)))
 (=> x_0_X $x1611)))
(assert
 (let (($x1615 (= z_0_77 (or z_1_77 z_1_78 z_1_23 z_1_24 z_1_25 z_1_26 z_1_27))))
 (=> x_0_F $x1615)))
(assert
 (let (($x1621 (= z_0_77 (and z_1_77 z_1_78 z_1_23 z_1_24 z_1_25 z_1_26 z_1_27))))
 (=> x_0_G $x1621)))
(assert
 (=> x_0_! (= z_0_78 (not z_1_78))))
(assert
 (let (($x1631 (= z_0_78 z_1_23)))
 (=> x_0_X $x1631)))
(assert
 (=> x_0_F (= z_0_78 (or z_1_78 z_1_23 z_1_24 z_1_25 z_1_26 z_1_27))))
(assert
 (let (($x1641 (= z_0_78 (and z_1_78 z_1_23 z_1_24 z_1_25 z_1_26 z_1_27))))
 (=> x_0_G $x1641)))
(assert
 (=> x_0_! (= z_0_79 (not z_1_79))))
(assert
 (let (($x1653 (= z_0_79 z_1_80)))
 (=> x_0_X $x1653)))
(assert
 (let (($x1657 (or z_1_79 z_1_80 z_1_81 z_1_73 z_1_74 z_1_75 z_1_19 z_1_20 z_1_16 z_1_17 z_1_18 z_1_15)))
 (=> x_0_F (= z_0_79 $x1657))))
(assert
 (let (($x1663 (and z_1_79 z_1_80 z_1_81 z_1_73 z_1_74 z_1_75 z_1_19 z_1_20 z_1_16 z_1_17 z_1_18 z_1_15)))
 (let (($x1664 (= z_0_79 $x1663)))
 (=> x_0_G $x1664))))
(assert
 (=> x_0_! (= z_0_80 (not z_1_80))))
(assert
 (let (($x1674 (= z_0_80 z_1_81)))
 (=> x_0_X $x1674)))
(assert
 (let (($x1677 (or z_1_80 z_1_81 z_1_73 z_1_74 z_1_75 z_1_19 z_1_20 z_1_16 z_1_17 z_1_18 z_1_15)))
 (=> x_0_F (= z_0_80 $x1677))))
(assert
 (let (($x1683 (and z_1_80 z_1_81 z_1_73 z_1_74 z_1_75 z_1_19 z_1_20 z_1_16 z_1_17 z_1_18 z_1_15)))
 (let (($x1684 (= z_0_80 $x1683)))
 (=> x_0_G $x1684))))
(assert
 (=> x_0_! (= z_0_81 (not z_1_81))))
(assert
 (let (($x1694 (= z_0_81 z_1_73)))
 (=> x_0_X $x1694)))
(assert
 (let (($x1697 (or z_1_81 z_1_73 z_1_74 z_1_75 z_1_19 z_1_20 z_1_16 z_1_17 z_1_18 z_1_15)))
 (=> x_0_F (= z_0_81 $x1697))))
(assert
 (let (($x1703 (and z_1_81 z_1_73 z_1_74 z_1_75 z_1_19 z_1_20 z_1_16 z_1_17 z_1_18 z_1_15)))
 (let (($x1704 (= z_0_81 $x1703)))
 (=> x_0_G $x1704))))
(assert
 (=> x_0_! (= z_0_82 (not z_1_82))))
(assert
 (let (($x1715 (= z_0_82 z_1_66)))
 (=> x_0_X $x1715)))
(assert
 (=> x_0_F (= z_0_82 (or z_1_82 z_1_66 z_1_2 z_1_0))))
(assert
 (let (($x1725 (= z_0_82 (and z_1_82 z_1_66 z_1_2 z_1_0))))
 (=> x_0_G $x1725)))
(assert
 (=> x_0_! (= z_0_83 (not z_1_83))))
(assert
 (let (($x1737 (= z_0_83 z_1_84)))
 (=> x_0_X $x1737)))
(assert
 (=> x_0_F (= z_0_83 (or z_1_83 z_1_84 z_1_57 z_1_4 z_1_5 z_1_3))))
(assert
 (let (($x1747 (= z_0_83 (and z_1_83 z_1_84 z_1_57 z_1_4 z_1_5 z_1_3))))
 (=> x_0_G $x1747)))
(assert
 (=> x_0_! (= z_0_84 (not z_1_84))))
(assert
 (let (($x1757 (= z_0_84 z_1_57)))
 (=> x_0_X $x1757)))
(assert
 (=> x_0_F (= z_0_84 (or z_1_84 z_1_57 z_1_4 z_1_5 z_1_3))))
(assert
 (let (($x1767 (= z_0_84 (and z_1_84 z_1_57 z_1_4 z_1_5 z_1_3))))
 (=> x_0_G $x1767)))
(assert
 z_0_0)
(assert
 (not z_0_1))
(assert
 (not z_0_3))
(assert
 (not z_0_6))
(assert
 (not z_0_7))
(assert
 (not z_0_9))
(assert
 (not z_0_10))
(assert
 (not z_0_11))
(assert
 (not z_0_19))
(assert
 (not z_0_21))
(assert
 (not z_0_28))
(assert
 (not z_0_29))
(assert
 (not z_0_30))
(assert
 (not z_0_31))
(assert
 (not z_0_32))
(assert
 (not z_0_33))
(assert
 (not z_0_35))
(assert
 (not z_0_36))
(assert
 (not z_0_37))
(assert
 (not z_0_39))
(assert
 (not z_0_40))
(assert
 (not z_0_42))
(assert
 (not z_0_43))
(assert
 (not z_0_50))
(assert
 (not z_0_52))
(assert
 (not z_0_54))
(assert
 (not z_0_55))
(assert
 (not z_0_56))
(assert
 (not z_0_58))
(assert
 (not z_0_59))
(assert
 (not z_0_60))
(assert
 (not z_0_61))
(assert
 (not z_0_62))
(assert
 (not z_0_64))
(assert
 (not z_0_67))
(assert
 (not z_0_68))
(assert
 (not z_0_76))
(assert
 (not z_0_79))
(assert
 (not z_0_82))
(assert
 (not z_0_83))
(check-sat)

